 ! --------------------------------------------------- CP Optimizer 22.1.1.0 --
 ! Satisfiability problem - 47000 variables, 604952 constraints
 ! Presolve      : 28800 extractables eliminated
 ! TimeLimit            = 3600
 ! Workers              = 1
 ! Initial process time : 5.40s (5.39s extraction + 0.01s propagation)
 !  . Log search space  : 481457.5 (before), 481457.5 (after)
 !  . Memory usage      : 364.6 MB (before), 364.6 MB (after)
 ! Using sequential search.
 ! ----------------------------------------------------------------------------
 !               Branches  Non-fixed            Branch decision
                     1126      44921        F          presenceOf(copy_trips:13_7)
                     2069      46309        F          presenceOf(copy_trips:39_0)
                     3000      31113                   presenceOf(copy_bus_parking:18_159)
                     4000      16502                   presenceOf(copy_trips:7_99)
                     5000      32030        F         !presenceOf(copy_trips:13_0)
                     6000      24155        F         !presenceOf(copy_bus_parking:15_3)
                     7000      24155                   presenceOf(copy_bus_parking:14_75)
                     8000      33077                   presenceOf(copy_lane_parking:3_173)
                     9000      20675                   presenceOf(copy_lane_parking:0_294)
                    10000      38928        F          presenceOf(copy_trips:17_72)
                    11000      33984                  !presenceOf(copy_trips:14_46)
                    12000      28803                  !presenceOf(copy_trips:27_0)
                    13000      28803        F          presenceOf(copy_bus_parking:33_353)
                    14000      29905        F          presenceOf(copy_trips:9_351)
                    15000      29905                  !presenceOf(copy_trips:22_359)
                    16000      29905                  !presenceOf(copy_trips:34_0)
                    17000      35413                   presenceOf(copy_lane_parking:1_169)
                    18000      28422                   presenceOf(copy_lane_parking:3_247)
                    19000      29790                   presenceOf(copy_lane_parking:7_254)
                    20000      32920                   presenceOf(copy_bus_parking:37_169)
 ! Time = 34.23s, Average fail depth = 377, Memory usage = 1.2 GB
 !               Branches  Non-fixed            Branch decision
                    21000      27584                   presenceOf(copy_lane_parking:0_232)
                    22000      16192        F          presenceOf(copy_trips:14_243)
                    23000      16192        F         !presenceOf(copy_trips:17_0)
                    24000      33693                  !presenceOf(copy_trips:26_97)
                    25000      29787                  !presenceOf(copy_bus_parking:38_353)
                    26000      29787        F          presenceOf(copy_bus_parking:16_38)
                    27000      29766        F          presenceOf(copy_bus_parking:7_355)
                    28000      29763        F         !presenceOf(copy_bus_parking:26_3)
                    29000      40285                  !presenceOf(copy_trips:24_11)
                    30000      40285                  !presenceOf(copy_bus_parking:34_57)
                    31000      40285            245 != endOf(start_parking:38)
                    32000      44642                   presenceOf(copy_lane_parking:7_260)
                    33000      32709        F          presenceOf(copy_trips:0_17)
                    34000      32706        F          presenceOf(copy_trips:32_17)
                    35000      32706                  !presenceOf(copy_trips:7_33)
                    36000      32706        F          presenceOf(copy_trips:17_17)
                    37000      32706        F          presenceOf(copy_trips:0_17)
                    38000      32706                  !presenceOf(copy_trips:8_33)
                    39000      32709                  !presenceOf(copy_trips:7_33)
                    40000      32706        F          presenceOf(copy_trips:12_17)
 ! Time = 64.25s, Average fail depth = 387, Memory usage = 1.2 GB
 !               Branches  Non-fixed            Branch decision
                    41000      32706        F          presenceOf(copy_bus_parking:3_35)
                    42000      32709                  !presenceOf(copy_trips:35_33)
                    43000      32706        F          presenceOf(copy_trips:36_17)
                    44000      32706        F          presenceOf(copy_trips:22_17)
                    45000      32706                   presenceOf(copy_lane_parking:5_11)
                    46000      26039                   presenceOf(copy_lane_parking:7_257)
                    47000      30121                   presenceOf(copy_lane_parking:5_261)
                    48000      29763                   presenceOf(copy_trips:32_172)
                    49000      16496                  !presenceOf(copy_bus_parking:6_258)
                    50000      16496                   presenceOf(copy_trips:18_166)
                    51000      20307                   presenceOf(copy_bus_parking:35_192)
                    52000      20862                  !presenceOf(copy_trips:33_49)
                    53000      31996        F          presenceOf(copy_trips:1_20)
                    54000      31794                   presenceOf(copy_bus_parking:38_142)
                    55000      16191        F          presenceOf(copy_bus_parking:11_243)
                    56000      16191        F          presenceOf(copy_bus_parking:11_243)
                    57000      16191        F          presenceOf(copy_bus_parking:19_243)
                    58000      16191            879  = startOf(charge:12_58)
                    59000      27278        F          presenceOf(copy_trips:4_0)
                    60000      37231        F         !presenceOf(copy_trips:4_0)
 ! Time = 93.00s, Average fail depth = 405, Memory usage = 1.2 GB
 !               Branches  Non-fixed            Branch decision
                    61000      42361                  !presenceOf(copy_bus_parking:27_3)
                    62000      33408        F          presenceOf(copy_bus_parking:35_34)
                    63000      33420                  !presenceOf(copy_trips:21_28)
                    64000      33408        F          presenceOf(copy_bus_parking:8_34)
                    65000      33405                  !presenceOf(copy_trips:34_48)
                    66000      29778                  !presenceOf(copy_trips:17_353)
                    67000      29775                   presenceOf(copy_lane_parking:5_83)
                    68000      41953                   presenceOf(copy_lane_parking:2_137)
                    69000      34693        F          presenceOf(copy_trips:37_40)
                    70000      33568            602  = startOf(charge:19_57)
                    71000      27967                   presenceOf(copy_lane_parking:5_86)
                    72000      16183                  !presenceOf(copy_trips:37_245)
                    73000      16183                   presenceOf(copy_trips:18_94)
                    74000      21922                  !presenceOf(copy_trips:26_193)
                    75000       8591        F          presenceOf(copy_trips:7_299)
                    76000       2416                  !presenceOf(copy_trips:35_347)
                    77000       2419                   presenceOf(copy_lane_parking:1_28)
                    78000      35175                  !presenceOf(copy_trips:35_39)
                    79000      34219            613  = startOf(charge:11_98)
                    80000      32178                  !presenceOf(copy_trips:3_46)
 ! Time = 126.54s, Average fail depth = 410, Memory usage = 1.3 GB
 !               Branches  Non-fixed            Branch decision
                    81000      29796                  !presenceOf(copy_bus_parking:0_355)
                    82000      29796                  !presenceOf(copy_trips:3_70)
                    83000      31840        F          presenceOf(copy_trips:22_109)
                    84000      28116                  !presenceOf(copy_trips:18_50)
                    85000      19699        F          presenceOf(copy_trips:11_182)
                    86000       4823        F          presenceOf(copy_trips:11_329)
 *                  86585  137.46s                   -
 ! ----------------------------------------------------------------------------
 ! Search completed, 1 solution found.
 ! ----------------------------------------------------------------------------
 ! Number of branches     : 86585
 ! Number of fails        : 29639
 ! Total memory usage     : 1.4 GB (1.3 GB CP Optimizer + 0.0 GB Concert)
 ! Time spent in solve    : 137.47s (132.09s engine + 5.39s extraction)
 ! Search speed (br. / s) : 655.5
 ! ----------------------------------------------------------------------------
